V=52;
E=76;
MAXLEN=4;
EDGES=[|
2, 0, 0, 0|
1, 3, 9, 0|
2, 4, 10, 0|
3, 5, 11, 0|
4, 6, 0, 0|
5, 7, 12, 0|
6, 8, 13, 0|
7, 0, 0, 0|
2, 10, 15, 0|
3, 9, 11, 16|
4, 10, 17, 0|
6, 13, 18, 0|
7, 12, 19, 0|
15, 0, 0, 0|
9, 14, 16, 20|
10, 15, 17, 21|
11, 16, 22, 0|
12, 19, 24, 0|
13, 18, 25, 0|
15, 21, 27, 0|
16, 20, 22, 28|
17, 21, 23, 29|
22, 24, 30, 0|
18, 23, 25, 31|
19, 24, 26, 32|
25, 33, 0, 0|
20, 28, 34, 0|
21, 27, 29, 0|
22, 28, 30, 0|
23, 29, 31, 35|
24, 30, 32, 36|
25, 31, 33, 37|
26, 32, 38, 0|
27, 0, 0, 0|
30, 36, 42, 0|
31, 35, 37, 43|
32, 36, 38, 44|
33, 37, 45, 0|
46, 0, 0, 0|
41, 48, 0, 0|
40, 42, 49, 0|
35, 41, 43, 0|
36, 42, 44, 50|
37, 43, 45, 51|
38, 44, 52, 0|
39, 47, 0, 0|
46, 48, 0, 0|
40, 47, 49, 0|
41, 48, 0, 0|
43, 51, 0, 0|
44, 50, 52, 0|
45, 51, 0, 0|];
